6 1 8 9 4 5 3 
3 5 10 1 9 8 4 
5 9 2 8 6 3 1 
5 6 2 1 4 9 7 
9 4 8 5 10 2 3 
7 8 1 6 5 10 3 
1 5 8 4 2 7 3 
4 9 3 7 10 8 2 
6 4 1 7 8 3 2 
10 6 9 5 7 1 2 
6 9 4 8 7 5 2 
4 10 6 5 3 9 2 
6 5 10 3 4 2 7 
8 6 1 3 4 7 10 
5 7 6 8 4 10 3 
9 6 4 5 8 1 10 
5 10 6 7 4 1 8 
6 3 10 9 8 5 2 
6 9 2 8 10 7 3 
7 10 9 6 5 1 2 
